100 8
767 882
527 487
435 476
75 262
417 586
785 851
551 104
202 70
641 937
643 808
333 788
507 517
83 134
435 520
613 367
269 96
97 666
616 444
345 896
180 261
255 460
154 225
292 402
440 724
874 773
466 719
775 782
548 467
300 801
438 206
674 913
680 128
902 328
180 43
545 428
287 846
675 871
288 718
457 757
540 526
544 97
715 66
175 346
541 362
347 318
960 843
609 834
108 97
342 431
219 458
465 595
374 208
528 432
361 417
931 721
292 335
422 731
622 399
741 196
868 830
481 403
347 748
171 151
331 872
230 571
477 467
113 301
491 597
906 253
368 828
541 463
375 501
811 834
825 316
399 527
576 399
736 287
455 506
782 708
456 595
554 89
602 939
611 315
458 803
284 899
351 478
593 191
427 11
200 365
881 832
854 756
534 506
627 499
233 254
579 304
394 405
884 688
229 211
861 878
517 446
